
$ Database file written 2020-12- 1
$ From database: SSUB4                   
 ELEMENT /-   ELECTRON_GAS              0.0000E+00  0.0000E+00  0.0000E+00!
 ELEMENT VA   VACUUM                    0.0000E+00  0.0000E+00  0.0000E+00!
 ELEMENT AL   FCC_A1                    2.6982E+01  4.5773E+03  2.8322E+01!
 ELEMENT CA   FCC_A1                    4.0078E+01  6.1965E+03  4.1589E+01!
 ELEMENT CO   HCP_A3                    5.8933E+01  0.0000E+00  0.0000E+00!
 ELEMENT CR   BCC_A2                    5.1996E+01  4.0500E+03  2.3560E+01!
 ELEMENT CU   FCC_A1                    6.3546E+01  5.0041E+03  3.3150E+01!
 ELEMENT FE   BCC_A2                    5.5847E+01  4.4890E+03  2.7280E+01!
 ELEMENT K    BCC_A2                    3.9098E+01  7.0835E+03  6.4672E+01!
 ELEMENT MG   HCP_A3                    2.4305E+01  4.9980E+03  3.2671E+01!
 ELEMENT MN   CBCC_A12                  5.4938E+01  4.9960E+03  3.2008E+01!
 ELEMENT NA   BCC_A2                    2.2990E+01  6.4475E+03  5.1447E+01!
 ELEMENT NI   FCC_A1                    5.8690E+01  4.7870E+03  2.9796E+01!
 ELEMENT O    1/2_MOLE_O2(GAS)          1.5999E+01  4.3410E+03  1.0252E+02!
 ELEMENT P    WHITE_P                   3.0974E+01  0.0000E+00  0.0000E+00!
 ELEMENT S    ORTHORHOMBIC_S            3.2066E+01  0.0000E+00  0.0000E+00!
 ELEMENT SI   DIAMOND_A4                2.8085E+01  3.2175E+03  1.8820E+01!
 ELEMENT TI   HCP_A3                    4.7880E+01  4.8100E+03  3.0648E+01!
 ELEMENT V    BCC_A2                    5.0941E+01  4.5070E+03  3.0890E+01!
 ELEMENT ZN   HCP_A3                    6.5390E+01  5.6568E+03  4.1631E+01!
 
 SPECIES AL12CA1O19                  AL12CA1O19!
 SPECIES AL14CA12O33                 AL14CA12O33!
 SPECIES AL18MG7O40SI3               AL18MG7O40SI3!
 SPECIES AL1CO1                      AL1CO1!
 SPECIES AL1CU1                      AL1CU1!
 SPECIES AL1CU1S1                    AL1CU1S1!
 SPECIES AL1CU1S2                    AL1CU1S2!
 SPECIES AL1K1O2                     AL1K1O2!
 SPECIES AL1K1O4SI1                  AL1K1O4SI1!
 SPECIES AL1K1O6SI2                  AL1K1O6SI2!
 SPECIES AL1K1O8S2                   AL1K1O8S2!
 SPECIES AL1NA1O2                    AL1NA1O2!
 SPECIES AL1NA1O4SI1                 AL1NA1O4SI1!
 SPECIES AL1NI1                      AL1NI1!
 SPECIES AL1NI3                      AL1NI3!
 SPECIES AL1O1                       AL1O1!
 SPECIES AL1O2                       AL1O2!
 SPECIES AL1O4P1                     AL1O4P1!
 SPECIES AL1P1                       AL1P1!
 SPECIES AL1P2                       AL1P2!
 SPECIES AL1S1                       AL1S1!
 SPECIES AL1S2                       AL1S2!
 SPECIES AL1TI1                      AL1TI1!
 SPECIES AL2                         AL2!
 SPECIES AL2CA1                      AL2CA1!
 SPECIES AL2CA1O4                    AL2CA1O4!
 SPECIES AL2CA1O6SI1                 AL2CA1O6SI1!
 SPECIES AL2CA1O8SI2                 AL2CA1O8SI2!
 SPECIES AL2CA2O7SI1                 AL2CA2O7SI1!
 SPECIES AL2CA3O12SI3                AL2CA3O12SI3!
 SPECIES AL2CA3O6                    AL2CA3O6!
 SPECIES AL2CO1O4                    AL2CO1O4!
 SPECIES AL2CU1O4                    AL2CU1O4!
 SPECIES AL2FE1O4                    AL2FE1O4!
 SPECIES AL2K2O12SI4                 AL2K2O12SI4!
 SPECIES AL2K2O16SI6                 AL2K2O16SI6!
 SPECIES AL2K2O8SI2                  AL2K2O8SI2!
 SPECIES AL2MG1O4                    AL2MG1O4!
 SPECIES AL2MG3O12SI3                AL2MG3O12SI3!
 SPECIES AL2MN1O4                    AL2MN1O4!
 SPECIES AL2NA2O12SI4                AL2NA2O12SI4!
 SPECIES AL2NA2O16SI6                AL2NA2O16SI6!
 SPECIES AL2NI1O4                    AL2NI1O4!
 SPECIES AL2O1                       AL2O1!
 SPECIES AL2O12S3                    AL2O12S3!
 SPECIES AL2O2                       AL2O2!
 SPECIES AL2O3                       AL2O3!
 SPECIES AL2O4ZN1                    AL2O4ZN1!
 SPECIES AL2O5SI1                    AL2O5SI1!
 SPECIES AL2O5TI1                    AL2O5TI1!
 SPECIES AL2O7SI2                    AL2O7SI2!
 SPECIES AL2S1                       AL2S1!
 SPECIES AL2S2                       AL2S2!
 SPECIES AL2S3                       AL2S3!
 SPECIES AL3CO1                      AL3CO1!
 SPECIES AL3NI1                      AL3NI1!
 SPECIES AL3NI2                      AL3NI2!
 SPECIES AL3TI1                      AL3TI1!
 SPECIES AL4CA1                      AL4CA1!
 SPECIES AL4CA1O7                    AL4CA1O7!
 SPECIES AL4MG2O18SI5                AL4MG2O18SI5!
 SPECIES AL5CO2                      AL5CO2!
 SPECIES AL6O13SI2                   AL6O13SI2!
 SPECIES AL9CO2                      AL9CO2!
 SPECIES CA0.83CU1O1.93              CA0.83CU1O1.93!
 SPECIES CA1CR1O3                    CA1CR1O3!
 SPECIES CA1CR2O4                    CA1CR2O4!
 SPECIES CA1CU1                      CA1CU1!
 SPECIES CA1CU2O3                    CA1CU2O3!
 SPECIES CA1CU5                      CA1CU5!
 SPECIES CA1FE2O4                    CA1FE2O4!
 SPECIES CA1MG1O2                    CA1MG1O2!
 SPECIES CA1MG1O4SI1                 CA1MG1O4SI1!
 SPECIES CA1MG1O6SI2                 CA1MG1O6SI2!
 SPECIES CA1MG2                      CA1MG2!
 SPECIES CA1O1                       CA1O1!
 SPECIES CA1O2                       CA1O2!
 SPECIES CA1O3S1                     CA1O3S1!
 SPECIES CA1O3SI1                    CA1O3SI1!
 SPECIES CA1O3TI1                    CA1O3TI1!
 SPECIES CA1O4S1                     CA1O4S1!
 SPECIES CA1O5SI1TI1                 CA1O5SI1TI1!
 SPECIES CA1O6V2                     CA1O6V2!
 SPECIES CA1S1                       CA1S1!
 SPECIES CA1SI1                      CA1SI1!
 SPECIES CA1SI2                      CA1SI2!
 SPECIES CA1ZN1                      CA1ZN1!
 SPECIES CA1ZN2                      CA1ZN2!
 SPECIES CA2                         CA2!
 SPECIES CA2CU1                      CA2CU1!
 SPECIES CA2CU1O3                    CA2CU1O3!
 SPECIES CA2FE2O5                    CA2FE2O5!
 SPECIES CA2MG1O7SI2                 CA2MG1O7SI2!
 SPECIES CA2O4SI1                    CA2O4SI1!
 SPECIES CA2O7P2                     CA2O7P2!
 SPECIES CA2O7V2                     CA2O7V2!
 SPECIES CA2SI1                      CA2SI1!
 SPECIES CA3MG1O8SI2                 CA3MG1O8SI2!
 SPECIES CA3O5SI1                    CA3O5SI1!
 SPECIES CA3O7SI2                    CA3O7SI2!
 SPECIES CA3O7TI2                    CA3O7TI2!
 SPECIES CA3O8P2                     CA3O8P2!
 SPECIES CA3O8V2                     CA3O8V2!
 SPECIES CA3P2                       CA3P2!
 SPECIES CA4O10TI3                   CA4O10TI3!
 SPECIES CO1CR2O4                    CO1CR2O4!
 SPECIES CO1FE2O4                    CO1FE2O4!
 SPECIES CO1O1                       CO1O1!
 SPECIES CO1O3TI1                    CO1O3TI1!
 SPECIES CO1O4S1                     CO1O4S1!
 SPECIES CO1O5TI2                    CO1O5TI2!
 SPECIES CO1P1                       CO1P1!
 SPECIES CO1P3                       CO1P3!
 SPECIES CO1S1                       CO1S1!
 SPECIES CO1S2                       CO1S2!
 SPECIES CO1SI1                      CO1SI1!
 SPECIES CO1SI2                      CO1SI2!
 SPECIES CO2                         CO2!
 SPECIES CO2O4SI1                    CO2O4SI1!
 SPECIES CO2O4TI1                    CO2O4TI1!
 SPECIES CO2P1                       CO2P1!
 SPECIES CO3O4                       CO3O4!
 SPECIES CO3S4                       CO3S4!
 SPECIES CO9S8                       CO9S8!
 SPECIES CR1K1O2                     CR1K1O2!
 SPECIES CR1K2O4                     CR1K2O4!
 SPECIES CR1K3O4                     CR1K3O4!
 SPECIES CR1K4O4                     CR1K4O4!
 SPECIES CR1NA2O4                    CR1NA2O4!
 SPECIES CR1O1                       CR1O1!
 SPECIES CR1O2                       CR1O2!
 SPECIES CR1O3                       CR1O3!
 SPECIES CR1S1                       CR1S1!
 SPECIES CR1S1.17                    CR1S1.17!
 SPECIES CR1S2                       CR1S2!
 SPECIES CR1SI1                      CR1SI1!
 SPECIES CR1SI2                      CR1SI2!
 SPECIES CR2                         CR2!
 SPECIES CR2FE1O4                    CR2FE1O4!
 SPECIES CR2MG1O4                    CR2MG1O4!
 SPECIES CR2NA2O4                    CR2NA2O4!
 SPECIES CR2NI1O4                    CR2NI1O4!
 SPECIES CR2O1                       CR2O1!
 SPECIES CR2O12S3                    CR2O12S3!
 SPECIES CR2O2                       CR2O2!
 SPECIES CR2O3                       CR2O3!
 SPECIES CR3SI1                      CR3SI1!
 SPECIES CR5O12                      CR5O12!
 SPECIES CR5SI3                      CR5SI3!
 SPECIES CR8O21                      CR8O21!
 SPECIES CU1FE1O2                    CU1FE1O2!
 SPECIES CU1FE1S2                    CU1FE1S2!
 SPECIES CU1FE2O4                    CU1FE2O4!
 SPECIES CU1MG2                      CU1MG2!
 SPECIES CU1O1                       CU1O1!
 SPECIES CU1O4S1                     CU1O4S1!
 SPECIES CU1P2                       CU1P2!
 SPECIES CU1S1                       CU1S1!
 SPECIES CU2                         CU2!
 SPECIES CU2FE2O4                    CU2FE2O4!
 SPECIES CU2MG1                      CU2MG1!
 SPECIES CU2O1                       CU2O1!
 SPECIES CU2O4S1                     CU2O4S1!
 SPECIES CU2O5S1                     CU2O5S1!
 SPECIES CU2S1                       CU2S1!
 SPECIES CU3P1                       CU3P1!
 SPECIES CU5FE1S4                    CU5FE1S4!
 SPECIES FE0.877S1                   FE0.877S1!
 SPECIES FE0.947O1                   FE0.947O1!
 SPECIES FE1K1O2                     FE1K1O2!
 SPECIES FE1K2O2                     FE1K2O2!
 SPECIES FE1K4O3                     FE1K4O3!
 SPECIES FE1NA1O2                    FE1NA1O2!
 SPECIES FE1O1                       FE1O1!
 SPECIES FE1O2                       FE1O2!
 SPECIES FE1O3SI1                    FE1O3SI1!
 SPECIES FE1O3TI1                    FE1O3TI1!
 SPECIES FE1O4S1                     FE1O4S1!
 SPECIES FE1O4V2                     FE1O4V2!
 SPECIES FE1O6V2                     FE1O6V2!
 SPECIES FE1P1                       FE1P1!
 SPECIES FE1P2                       FE1P2!
 SPECIES FE1S1                       FE1S1!
 SPECIES FE1S2                       FE1S2!
 SPECIES FE1SI1                      FE1SI1!
 SPECIES FE1SI2                      FE1SI2!
 SPECIES FE1SI2.33                   FE1SI2.33!
 SPECIES FE1TI1                      FE1TI1!
 SPECIES FE2                         FE2!
 SPECIES FE2MG1O4                    FE2MG1O4!
 SPECIES FE2MN1O4                    FE2MN1O4!
 SPECIES FE2NI1O4                    FE2NI1O4!
 SPECIES FE2O12S3                    FE2O12S3!
 SPECIES FE2O3                       FE2O3!
 SPECIES FE2O4SI1                    FE2O4SI1!
 SPECIES FE2O4TI1                    FE2O4TI1!
 SPECIES FE2O4ZN1                    FE2O4ZN1!
 SPECIES FE2P1                       FE2P1!
 SPECIES FE2TI1                      FE2TI1!
 SPECIES FE3O4                       FE3O4!
 SPECIES FE3P1                       FE3P1!
 SPECIES K1NA1                       K1NA1!
 SPECIES K1O1                        K1O1!
 SPECIES K1O2                        K1O2!
 SPECIES K2                          K2!
 SPECIES K2O1                        K2O1!
 SPECIES K2O2                        K2O2!
 SPECIES K2O3S1                      K2O3S1!
 SPECIES K2O3SI1                     K2O3SI1!
 SPECIES K2O4S1                      K2O4S1!
 SPECIES K2O5SI2                     K2O5SI2!
 SPECIES K2O9SI4                     K2O9SI4!
 SPECIES K2S1                        K2S1!
 SPECIES K3O4P1                      K3O4P1!
 SPECIES MG1NI2                      MG1NI2!
 SPECIES MG1O1                       MG1O1!
 SPECIES MG1O3SI1                    MG1O3SI1!
 SPECIES MG1O3TI1                    MG1O3TI1!
 SPECIES MG1O4S1                     MG1O4S1!
 SPECIES MG1O5TI2                    MG1O5TI2!
 SPECIES MG1O6V2                     MG1O6V2!
 SPECIES MG1S1                       MG1S1!
 SPECIES MG1ZN1                      MG1ZN1!
 SPECIES MG1ZN2                      MG1ZN2!
 SPECIES MG2                         MG2!
 SPECIES MG2NI1                      MG2NI1!
 SPECIES MG2O4SI1                    MG2O4SI1!
 SPECIES MG2O4TI1                    MG2O4TI1!
 SPECIES MG2O7V2                     MG2O7V2!
 SPECIES MG2SI1                      MG2SI1!
 SPECIES MG3O8P2                     MG3O8P2!
 SPECIES MG3P2                       MG3P2!
 SPECIES MN11SI19                    MN11SI19!
 SPECIES MN1O1                       MN1O1!
 SPECIES MN1O2                       MN1O2!
 SPECIES MN1O3SI1                    MN1O3SI1!
 SPECIES MN1O3TI1                    MN1O3TI1!
 SPECIES MN1O4S1                     MN1O4S1!
 SPECIES MN1P1                       MN1P1!
 SPECIES MN1P3                       MN1P3!
 SPECIES MN1S1                       MN1S1!
 SPECIES MN1S2                       MN1S2!
 SPECIES MN1SI1                      MN1SI1!
 SPECIES MN2O3                       MN2O3!
 SPECIES MN2O4SI1                    MN2O4SI1!
 SPECIES MN2O4TI1                    MN2O4TI1!
 SPECIES MN2O7                       MN2O7!
 SPECIES MN2P1                       MN2P1!
 SPECIES MN3O4                       MN3O4!
 SPECIES MN3SI1                      MN3SI1!
 SPECIES MN4SI7                      MN4SI7!
 SPECIES MN5SI3                      MN5SI3!
 SPECIES NA1O1                       NA1O1!
 SPECIES NA1O2                       NA1O2!
 SPECIES NA1O3P1                     NA1O3P1!
 SPECIES NA1S1                       NA1S1!
 SPECIES NA1S2                       NA1S2!
 SPECIES NA2                         NA2!
 SPECIES NA2O1                       NA2O1!
 SPECIES NA2O2                       NA2O2!
 SPECIES NA2O3S1                     NA2O3S1!
 SPECIES NA2O3SI1                    NA2O3SI1!
 SPECIES NA2O3TI1                    NA2O3TI1!
 SPECIES NA2O4S1                     NA2O4S1!
 SPECIES NA2O5SI2                    NA2O5SI2!
 SPECIES NA2O5TI2                    NA2O5TI2!
 SPECIES NA2O6V2                     NA2O6V2!
 SPECIES NA2O7TI3                    NA2O7TI3!
 SPECIES NA2S1                       NA2S1!
 SPECIES NA2S2                       NA2S2!
 SPECIES NA2S3                       NA2S3!
 SPECIES NA3O4P1                     NA3O4P1!
 SPECIES NA4O4SI1                    NA4O4SI1!
 SPECIES NA4O7P2                     NA4O7P2!
 SPECIES NA4O7V2                     NA4O7V2!
 SPECIES NA6O8V2                     NA6O8V2!
 SPECIES NI1O1                       NI1O1!
 SPECIES NI1O3TI1                    NI1O3TI1!
 SPECIES NI1O4S1                     NI1O4S1!
 SPECIES NI1P2                       NI1P2!
 SPECIES NI1P3                       NI1P3!
 SPECIES NI1S1                       NI1S1!
 SPECIES NI1S2                       NI1S2!
 SPECIES NI1SI1                      NI1SI1!
 SPECIES NI1SI2                      NI1SI2!
 SPECIES NI1TI1                      NI1TI1!
 SPECIES NI1TI2                      NI1TI2!
 SPECIES NI2                         NI2!
 SPECIES NI2O4SI1                    NI2O4SI1!
 SPECIES NI2P1                       NI2P1!
 SPECIES NI3P1                       NI3P1!
 SPECIES NI3S2                       NI3S2!
 SPECIES NI3S4                       NI3S4!
 SPECIES NI3TI1                      NI3TI1!
 SPECIES NI5P2                       NI5P2!
 SPECIES NI6P5                       NI6P5!
 SPECIES O10P4                       O10P4!
 SPECIES O10V4                       O10V4!
 SPECIES O1P1                        O1P1!
 SPECIES O1S1                        O1S1!
 SPECIES O1S2                        O1S2!
 SPECIES O1SI1                       O1SI1!
 SPECIES O1TI1                       O1TI1!
 SPECIES O1V1                        O1V1!
 SPECIES O1ZN1                       O1ZN1!
 SPECIES O2                          O2!
 SPECIES O2P1                        O2P1!
 SPECIES O2S1                        O2S1!
 SPECIES O2SI1                       O2SI1!
 SPECIES O2SI2                       O2SI2!
 SPECIES O2TI1                       O2TI1!
 SPECIES O2V1                        O2V1!
 SPECIES O3                          O3!
 SPECIES O3P2                        O3P2!
 SPECIES O3S1                        O3S1!
 SPECIES O3TI2                       O3TI2!
 SPECIES O3V2                        O3V2!
 SPECIES O4P2                        O4P2!
 SPECIES O4S1ZN1                     O4S1ZN1!
 SPECIES O4SI1ZN2                    O4SI1ZN2!
 SPECIES O4TI1ZN2                    O4TI1ZN2!
 SPECIES O4V2                        O4V2!
 SPECIES O5P2                        O5P2!
 SPECIES O5TI3                       O5TI3!
 SPECIES O5V2                        O5V2!
 SPECIES O6P3                        O6P3!
 SPECIES O6P4                        O6P4!
 SPECIES O7P4                        O7P4!
 SPECIES O7TI4                       O7TI4!
 SPECIES O8P4                        O8P4!
 SPECIES O9P4                        O9P4!
 SPECIES O9S2ZN3                     O9S2ZN3!
 SPECIES P1S1                        P1S1!
 SPECIES P1SI1                       P1SI1!
 SPECIES P1SI2                       P1SI2!
 SPECIES P2                          P2!
 SPECIES P2S3                        P2S3!
 SPECIES P2S5                        P2S5!
 SPECIES P2SI2                       P2SI2!
 SPECIES P2ZN1                       P2ZN1!
 SPECIES P2ZN3                       P2ZN3!
 SPECIES P3                          P3!
 SPECIES P4                          P4!
 SPECIES P4S3                        P4S3!
 SPECIES P4S5                        P4S5!
 SPECIES P4S7                        P4S7!
 SPECIES S1SI1                       S1SI1!
 SPECIES S1TI1                       S1TI1!
 SPECIES S1ZN1                       S1ZN1!
 SPECIES S2                          S2!
 SPECIES S2SI1                       S2SI1!
 SPECIES S2TI1                       S2TI1!
 SPECIES S3                          S3!
 SPECIES S4                          S4!
 SPECIES S5                          S5!
 SPECIES S6                          S6!
 SPECIES S7                          S7!
 SPECIES S8                          S8!
 SPECIES SI1TI1                      SI1TI1!
 SPECIES SI2                         SI2!
 SPECIES SI2TI1                      SI2TI1!
 SPECIES SI2V1                       SI2V1!
 SPECIES SI3                         SI3!
 SPECIES SI3TI5                      SI3TI5!
 SPECIES TI2                         TI2!
 
 FUNCTION F162T     298.15 +308413.104-26.8663217*T-20.78039*T*LN(T)
     +3.520865E-08*T**2-1.789015E-10*T**3-27114.25*T**(-1); 3300 Y
      +294502.846+22.5173774*T-26.85062*T*LN(T)+.001194919*T**2
     -4.501805E-08*T**3+6025110*T**(-1); 6400 Y
      +447945.062-285.801392*T+8.243415*T*LN(T)-.0023944315*T**2
     +2.426725E-08*T**3-1.2048605E+08*T**(-1); 9400 Y
      +349945.955-150.289475*T-6.454579*T*LN(T)-.0014339715*T**2
     +1.278805E-08*T**3; 10000 N !
 FUNCTION F333T     298.15 +441621.698+13.5581165*T-37.25249*T*LN(T)
     -7.05866E-05*T**2+5.13431167E-09*T**3+83492.35*T**(-1); 3000 N !
 FUNCTION F335T     298.15 +264386.466+80.6593478*T-55.12211*T*LN(T)
     -.0027251645*T**2+4.48695E-07*T**3+218262.55*T**(-1); 1000 Y
      +262686.554+101.926172*T-58.31659*T*LN(T)+4.124399E-05*T**2
     -2.58286667E-09*T**3+402904.55*T**(-1); 3000 N !
 FUNCTION F339T     298.15 +139466.815+215.577367*T-77.11321*T*LN(T)
     -.009873025*T**2+1.82863167E-06*T**3+290020.25*T**(-1); 800 Y
      +134866.659+280.655557*T-87.08369*T*LN(T)-6.74923E-05*T**2
     +3.862355E-09*T**3+702320*T**(-1); 3000 N !
 FUNCTION F577T     298.15 +68468.7356-29.708552*T-27.37717*T*LN(T)
     -.008706905*T**2+1.34759667E-06*T**3+42904.83*T**(-1); 800 Y
      +70559.2235-26.9045572*T-28.56166*T*LN(T)-.0034503355*T**2
     -1.4328805E-07*T**3-437311.7*T**(-1); 1600 Y
      +68575.8626-63.4014165*T-22.54674*T*LN(T)-.009242035*T**2
     +5.66213667E-07*T**3+1636864.5*T**(-1); 2800 Y
      -17076.0658+348.591643*T-75.33292*T*LN(T)+.005011805*T**2
     -1.47269833E-07*T**3+27223195*T**(-1); 6000 N !
 FUNCTION F587T     298.15 -200250.88+67.6442736*T-45.11105*T*LN(T)
     -.016095035*T**2+2.90117167E-06*T**3+212888.2*T**(-1); 800 Y
      -208337.344+178.095443*T-61.93533*T*LN(T)-1.05714E-04*T**2
     +3.98789667E-09*T**3+970284*T**(-1); 3000 N !
 FUNCTION F596T     298.15 +418432.069+24.5561614*T-37.19604*T*LN(T)
     -1.730803E-04*T**2+6.83827167E-09*T**3+98823.05*T**(-1); 3000 N !
 FUNCTION F598T     298.15 +313726.626+124.763317*T-56.8823*T*LN(T)
     -.004231306*T**2+6.07965333E-07*T**3+248956.4*T**(-1); 1100 Y
      +310708.208+160.951753*T-62.25089*T*LN(T)-3.015459E-05*T**2
     +1.58303E-09*T**3+569151.5*T**(-1); 3000 N !
 FUNCTION F602T     298.15 +220683.896+20.7692245*T-37.44424*T*LN(T)
     +.002301048*T**2-1.18863567E-06*T**3+146935.1*T**(-1); 1000 Y
      +236126.006-153.628401*T-11.8607*T*LN(T)-.01624376*T**2
     +1.29995383E-06*T**3-1566164*T**(-1); 1900 Y
      +173442.832+248.168389*T-65.64415*T*LN(T)+.0041006005*T**2
     -1.331339E-07*T**3+11998565*T**(-1); 4500 Y
      +252669.587-20.5070243*T-32.90149*T*LN(T)-.001812049*T**2
     +6.40443167E-08*T**3-23281900*T**(-1); 6000 N !
 FUNCTION F608T     298.15 +228905.753+115.957045*T-60.84059*T*LN(T)
     -9.199565E-04*T**2+9.81461667E-08*T**3+213781*T**(-1); 1700 Y
      +227876.538+126.489361*T-62.35303*T*LN(T)-7.848025E-07*T**2
     +2.05982167E-11*T**3+341528.2*T**(-1); 6000 N !
 FUNCTION F623T     298.15 +480383.542-1.58706566*T-36.90579*T*LN(T)
     -7.56815E-04*T**2-1.31040183E-07*T**3+16498.85*T**(-1); 1600 Y
      +484703.82-58.8210679*T-28.53999*T*LN(T)-.00618347*T**2
     +4.55704333E-07*T**3; 3100 Y
      +399551.917+333.52963*T-78.48514*T*LN(T)+.006619755*T**2
     -1.5106045E-07*T**3+26673440*T**(-1); 3800 N !
 FUNCTION F768T     298.15 -201660.825+80.9385369*T-49.25823*T*LN(T)
     -.012061425*T**2+2.14597333E-06*T**3+130925.75*T**(-1); 800 Y
      -208004.473+165.926016*T-62.16169*T*LN(T)-3.72899E-05*T**2
     +1.19899483E-09*T**3+738957*T**(-1); 6000 N !
 FUNCTION F776T     298.15 -494047.79-72.1054899*T-23.89169*T*LN(T)
     -.0621397*T**2+1.29213783E-05*T**3+78100*T**(-1); 600 Y
      -514422.654+254.039684*T-74.96724*T*LN(T)-.0042506095*T**2
     +4.18842167E-07*T**3+1628653.5*T**(-1); 1500 Y
      -521272.731+311.4317*T-82.99675*T*LN(T)-2.4276615E-05*T**2
     +7.14432E-10*T**3+2748177*T**(-1); 6000 N !
 FUNCTION F802T     298.15 -575903.151+252.49861*T-82.26331*T*LN(T)
     -.025448955*T**2+4.17391E-06*T**3+366776.4*T**(-1); 800 Y
      -591324.268+447.940009*T-111.611*T*LN(T)-1.2771895E-04*T**2
     +4.43587833E-09*T**3+1918382*T**(-1); 6000 N !
 FUNCTION F840T     298.15 +200986.61+139.152025*T-60.83797*T*LN(T)
     -9.217815E-04*T**2+9.83845667E-08*T**3+221648.4*T**(-1); 1700 Y
      +199955.863+149.698676*T-62.35254*T*LN(T)-8.943E-07*T**2
     +2.55738167E-11*T**3+349884.85*T**(-1); 6000 N !
 FUNCTION F844T     298.15 +108368.632+231.009784*T-81.36279*T*LN(T)
     -.004427028*T**2+6.0588E-07*T**3+345650.55*T**(-1); 1200 Y
      +104922.745+271.047073*T-87.2672*T*LN(T)-6.020675E-06*T**2
     +1.89006E-10*T**3+725797*T**(-1); 6000 N !
 FUNCTION F5377T    298.15 +170631.61-14.470473*T-20.97219*T*LN(T)
     +1.78157E-04*T**2-2.74831667E-08*T**3+4459.1005*T**(-1); 1900 Y
      +133042.047+211.942959*T-51.03146*T*LN(T)+.01095733*T**2
     -7.58329333E-07*T**3+8900275*T**(-1); 3600 Y
      +802106.637-2023.14842*T+221.2015*T*LN(T)-.03849748*T**2
     +9.34346333E-07*T**3-3.007237E+08*T**(-1); 5900 Y
      -1016507.92+1951.8583*T-236.1074*T*LN(T)+.012768595*T**2
     -1.46631567E-07*T**3+1.0593555E+09*T**(-1); 10000 N !
 FUNCTION F5539T    298.15 +27187.5732+2.82368367*T-32.6874*T*LN(T)
     -.0042977525*T**2+6.61898833E-07*T**3+108932.4*T**(-1); 800 Y
      +10939.0899+191.591047*T-60.56871*T*LN(T)+.017104125*T**2
     -2.44585667E-06*T**3+1892250.5*T**(-1); 1700 Y
      +264546.787-1406.1704*T+152.9149*T*LN(T)-.062972*T**2
     +3.20298333E-06*T**3-54717800*T**(-1); 2900 Y
      -479126.92+1673.82219*T-233.6918*T*LN(T)+.02647423*T**2
     -6.82389E-07*T**3+2.1387495E+08*T**(-1); 5100 Y
      +101718.099+125.519566*T-50.8391*T*LN(T)+8.196885E-04*T**2
     -6.203065E-09*T**3-1.333774E+08*T**(-1); 10000 N !
 FUNCTION F5578T    298.15 +109563.459+19.7992148*T-37.52976*T*LN(T)
     +4.9060145E-04*T**2-2.42470167E-07*T**3+113863.75*T**(-1); 900 Y
      +109201.051+44.5287359*T-41.6638*T*LN(T)+.005962705*T**2
     -1.3086005E-06*T**3-102245.3*T**(-1); 1600 Y
      +198829.792-589.252089*T+44.54002*T*LN(T)-.0308902*T**2
     +1.64567767E-06*T**3-17577940*T**(-1); 2800 Y
      -92029.8827+701.362724*T-119.0516*T*LN(T)+.00995844*T**2
     -2.647865E-07*T**3+79273300*T**(-1); 5400 Y
      +274677.897-249.284081*T-7.205198*T*LN(T)-.005229315*T**2
     +1.221265E-07*T**3-1.468852E+08*T**(-1); 6000 N !
 FUNCTION F5600T    298.15 +328351.639+100.727905*T-57.06096*T*LN(T)
     +.043881965*T**2-1.00131433E-05*T**3-34035.885*T**(-1); 500 Y
      +341516.759-125.927777*T-21.13135*T*LN(T)+2.0114005E-04*T**2
     -1.72831E-08*T**3-939425*T**(-1); 2400 Y
      +341937.685-129.505068*T-20.63507*T*LN(T)-3.0526885E-05*T**2
     +1.18918867E-09*T**3-1003665*T**(-1); 3000 N !
 FUNCTION F7439T    298.15 +416729.448-35.265807*T-20.78*T*LN(T)
     -.0080941*T**2+1.95473333E-06*T**3+68440*T**(-1); 600 Y
      +415600.439-4.47823809*T-25.919*T*LN(T)-3.217E-04*T**2+1.228E-08*T**3
     +69800*T**(-1); 1600 Y
      +404059.608+60.9456563*T-34.475*T*LN(T)+.00226985*T**2
     -1.11743333E-07*T**3+2845480*T**(-1); 5300 Y
      +619409.166-455.183402*T+25.674*T*LN(T)-.00531515*T**2
     +7.04183333E-08*T**3-1.4391985E+08*T**(-1); 10000 N !
 FUNCTION F7532T    298.15 +275841.927+24.0962563*T-38.62*T*LN(T)
     +.0010486*T**2-5.3089E-07*T**3+44960*T**(-1); 1000 Y
      +271341.103+44.7689137*T-41.009*T*LN(T)-1.055E-05*T**2
     -9.90866667E-08*T**3+1003100*T**(-1); 2900 Y
      +390604.342-373.916021*T+10.233*T*LN(T)-.0095202*T**2
     +2.18581667E-07*T**3-49953335*T**(-1); 5600 Y
      +339256.902-297.790942*T+2.109*T*LN(T)-.00931405*T**2
     +2.32998333E-07*T**3-1285140*T**(-1); 6000 N !
 FUNCTION F7559T    298.15 +354979.601+54.0444497*T-45.319*T*LN(T)
     +.00710835*T**2-1.60063333E-06*T**3+90575*T**(-1); 800 Y
      +357252.508+8.60125958*T-38.112*T*LN(T)-9.978E-04*T**2-6.1175E-08*T**3
     +43040*T**(-1); 2600 Y
      +449431.254-341.311064*T+5.162*T*LN(T)-.00969115*T**2
     +2.47826667E-07*T**3-35799735*T**(-1); 5300 Y
      +361156.658-158.111574*T-15.679*T*LN(T)-.0076753*T**2+2.1657E-07*T**3
     +30809935*T**(-1); 6000 N !
 FUNCTION F7591T    298.15 +739344.57+228.270513*T-75.86201*T*LN(T)
     +.02653785*T**2-3.82613167E-06*T**3+589055*T**(-1); 900 Y
      +766271.806-69.2721015*T-32.277*T*LN(T)-.0051345*T**2+5.3545E-07*T**3
     -2559210*T**(-1); 2500 Y
      +742734.911+122.487527*T-58.296*T*LN(T)+.0049326*T**2
     -1.22191667E-07*T**3-1487375*T**(-1); 5800 Y
      +1148759.49-821.285064*T+51.18*T*LN(T)-.0082646*T**2
     +1.77621667E-07*T**3-2.8575475E+08*T**(-1); 6000 N !
 FUNCTION F7638T    298.15 +414769.531-47.5422158*T-21.36083*T*LN(T)
     +7.253215E-04*T**2-1.588679E-07*T**3+10285.15*T**(-1); 1100 Y
      +417891.128-60.1304654*T-19.96003*T*LN(T)+.001513089*T**2
     -4.23648333E-07*T**3-722515*T**(-1); 2000 Y
      +445376.203-247.911524*T+5.362886*T*LN(T)-.00848877*T**2
     +2.984635E-07*T**3-6015405*T**(-1); 3300 Y
      +329168.899+234.996831*T-55.20304*T*LN(T)+.005324585*T**2
     -2.850405E-07*T**3+34951485*T**(-1); 5100 Y
      +1093925.3-1724.95563*T+175.0508*T*LN(T)-.025574185*T**2
     +4.94447E-07*T**3-4.4276355E+08*T**(-1); 7600 Y
      -847948.637+1670.45056*T-204.5589*T*LN(T)+.007475225*T**2
     -4.618745E-08*T**3+1.423504E+09*T**(-1); 10000 N !
 FUNCTION F7849T    298.15 +176483.869-31.9513659*T-30.2897*T*LN(T)
     -.00607059*T**2+9.229905E-07*T**3+35263.135*T**(-1); 900 Y
      +170853.62+32.1684007*T-39.74749*T*LN(T)+.00119977*T**2
     -1.52515733E-07*T**3+682877*T**(-1); 4000 Y
      +307209.502-414.237405*T+14.48744*T*LN(T)-.008463125*T**2
     +1.722975E-07*T**3-64209900*T**(-1); 8400 Y
      -403765.708+805.224944*T-121.5329*T*LN(T)+.003139382*T**2
     -1.36845867E-08*T**3+6.35563E+08*T**(-1); 10000 N !
 FUNCTION F7857T    298.15 -121743.409-9.3513573*T-36.29523*T*LN(T)
     -.01993456*T**2+3.5091E-06*T**3+193490.75*T**(-1); 700 Y
      -130807.622+121.470522*T-56.35306*T*LN(T)-3.3428045E-04*T**2
     -6.06589333E-08*T**3+956146*T**(-1); 3400 Y
      -110536.941+26.3566562*T-44.22742*T*LN(T)-.003455125*T**2
     +8.58097667E-08*T**3-5175510*T**(-1); 6000 N !
 FUNCTION F7870T    298.15 -342387.72+103.718924*T-52.84504*T*LN(T)
     -.02759153*T**2+4.86524667E-06*T**3+358400*T**(-1); 700 Y
      -356869.109+299.291672*T-82.53502*T*LN(T)-7.979305E-05*T**2
     -1.88415667E-09*T**3+1702506*T**(-1); 4000 Y
      -362423.325+334.459538*T-87.10177*T*LN(T)+.001170557*T**2
     -5.86174E-08*T**3+1764429*T**(-1); 6000 N !
 FUNCTION F7888T    298.15 +335171.69-3.05610062*T-36.83894*T*LN(T)
     -2.539681E-04*T**2-7.14818333E-08*T**3+76984.6*T**(-1); 1400 Y
      +345498.967-59.513127*T-29.54378*T*LN(T)-.0020853955*T**2
     -4.10400167E-08*T**3-2398625.5*T**(-1); 3600 Y
      +394276.382-272.867794*T-2.651297*T*LN(T)-.008389765*T**2
     +2.27601833E-07*T**3-17881500*T**(-1); 6000 N !
 FUNCTION F7893T    298.15 +225403.301+77.4137695*T-53.86667*T*LN(T)
     -.0032459135*T**2+4.12553167E-07*T**3+301083.8*T**(-1); 1000 Y
      +230142.828+53.2286765*T-50.94593*T*LN(T)-.0026395905*T**2
     +4.74120333E-08*T**3-670289.5*T**(-1); 3200 Y
      +201381.93+124.470886*T-59.09829*T*LN(T)-.002099957*T**2
     +7.35132E-08*T**3+15185325*T**(-1); 6000 N !
 FUNCTION F7904T    298.15 +617947.803+27.8383212*T-40.56798*T*LN(T)
     +.004961847*T**2-1.61216717E-06*T**3+154422.85*T**(-1); 800 Y
      +632781.632-117.904991*T-19.7643*T*LN(T)-.007085085*T**2
     -4.69883E-07*T**3-1738066.5*T**(-1); 1400 Y
      +662045.243-382.98326*T+17.64743*T*LN(T)-.02767321*T**2
     +1.605906E-06*T**3-5831655*T**(-1); 2300 Y
      +572556.295+145.491555*T-52.07969*T*LN(T)-.004229401*T**2
     +1.5939925E-07*T**3+14793625*T**(-1); 3900 Y
      +366928.74+609.440623*T-105.0428*T*LN(T)+3.9699545E-04*T**2
     +1.51783483E-07*T**3+1.4843765E+08*T**(-1); 5800 Y
      -464748.655+2584.55859*T-334.7145*T*LN(T)+.028597625*T**2